

c This is SATyr 
c Created by Valentin Montmirail, a student in computer engineering at Polytech Tours
c 
c /====================================================================================\
c | Number of Variables  :      120                                                     |
c | Number of Clauses    :     1162                                                     |
c |-------------------------------------------------------------------------------------|
c | Parsing time         :     3.390ms                                                  |
c |=====================================================================================|
c | Gener :    2 | best :    0    | resolutions :       0 | flips:      47 flips        |
c |-------------------------------------------------------------------------------------|
s   SATISFIABLE
v -1 -2 -3 4 -5 -6 -7 -8 -9 -10 -11 -12 -13 -14 -15 -16 -17 -18 -19 -20 -21 -22 -23 24 -25 -26 -27 -28 -29 -30 -31 32 -33 -34 -35 -36 -37 -38 -39 -40 41 -42 -43 -44 -45 -46 -47 -48 -49 -50 51 -52 -53 -54 -55 -56 -57 -58 -59 -60 -61 -62 -63 -64 -65 -66 -67 -68 69 -70 -71 -72 -73 -74 -75 -76 -77 78 -79 -80 -81 -82 83 -84 -85 86 -87 -88 -89 -90 -91 -92 -93 -94 -95 -96 -97 -98 -99 -100 -101 -102 -103 -104 -105 106 -107 -108 109 -110 -111 -112 -113 -114 115 -116 -117 -118 -119 -120 0
c |-------------------------------------------------------------------------------------|
c | Solving Time 	 :   0.0100 seconds           					|
c | After                :         47 flips           					|
c | Generation number    :   2nd generation              				|
c | With                 :   22 individuals           					|
c \====================================================================================/

